c DCNF-Autarky [version 0.0.1]. 
c Copyright (c) 2018-2019 Swansea University. 
c 
c Input QBF/DQBF path: Basler/wmiforward/stmt44_107_113.qdimacs
c Output SAT Translation Path: /tmp/stmt44_107_113.qdimacs-dcnfAutarky.dimacs
c Input Clause Count (tautology free): 129
c
c Performing E1-Autarky iteration.
c Remaining clauses count after E-Reduction: 128
c
c Performing A1-Autarky iteration.
c Running Lingeling ... 
c
c Remaining clauses count after A-Reduction: 128
c
c Input Parameter (command line, file): 
c input filename   Basler/wmiforward/stmt44_107_113.qdimacs
c output filename  /tmp/stmt44_107_113.qdimacs-dcnfAutarky.dimacs
c autarky level    1
c conformity level 0
c encoding type    2
c no.of var        55
c no.of clauses    129
c no.of taut cls   0
c 
c Output Parameters: 
c remaining no.of clauses  128
c
c filename pn pc autarky ntaut rpa rpe rpcdiff result
c "Basler/wmiforward/stmt44_107_113.qdimacs" 55 129 "E1+A1" 0 7 47 1 "RED" 
p cnf 55 128
a 2 3 4 8 13 15 16 0
e 1 5 6 7 9 10 11 12 14 17 18 19 20 21 22 23 24 25 26 27 28 29 30 31 32 33 34 35 36 37 38 39 40 41 42 43 44 45 46 47 48 49 50 51 52 53 54 55 0
3 -5 0
4 -5 0
-3 -4 5 0
3 -6 0
-4 -6 0
-3 4 6 0
3 7 0
-5 7 0
-6 7 0
-3 5 6 -7 0
-8 9 0
8 9 0
2 -10 0
7 -10 0
9 -10 0
-2 -7 -9 10 0
-2 -11 0
7 -11 0
2 -7 11 0
-10 12 0
-11 12 0
10 11 -12 0
-13 14 0
13 14 0
-16 17 0
16 17 0
15 -18 0
17 -18 0
-15 -17 18 0
15 19 0
-18 19 0
-15 18 -19 0
12 -20 0
14 -20 0
19 -20 0
-12 -14 -19 20 0
-8 21 0
8 21 0
2 -22 0
21 -22 0
-2 -21 22 0
-22 23 0
2 23 0
22 -2 -23 0
23 -24 0
15 -24 0
17 -24 0
-23 -15 -17 24 0
23 -25 0
-15 -25 0
-23 15 25 0
-24 26 0
-25 26 0
24 25 -26 0
-8 27 0
8 27 0
2 -28 0
27 -28 0
-2 -27 28 0
-28 29 0
2 29 0
28 -2 -29 0
29 -30 0
15 -30 0
17 -30 0
-29 -15 -17 30 0
29 -31 0
-15 -31 0
-29 15 31 0
-30 32 0
-31 32 0
30 31 -32 0
34 -36 0
35 -36 0
-34 -35 36 0
34 -37 0
-35 -37 0
-34 35 37 0
34 38 0
-36 38 0
-37 38 0
-34 36 37 -38 0
-39 40 0
39 40 0
33 -41 0
38 -41 0
40 -41 0
-33 -38 -40 41 0
-33 -42 0
38 -42 0
33 -38 42 0
-41 43 0
-42 43 0
41 42 -43 0
-44 45 0
44 45 0
43 -46 0
45 -46 0
-43 -45 46 0
-39 47 0
39 47 0
33 -48 0
47 -48 0
-33 -47 48 0
-48 49 0
33 49 0
48 -33 -49 0
-39 50 0
39 50 0
33 -51 0
50 -51 0
-33 -50 51 0
-51 52 0
33 52 0
51 -33 -52 0
-49 -26 -53 0
49 26 -53 0
-49 26 53 0
49 -26 53 0
-52 -32 -54 0
52 32 -54 0
-52 32 54 0
52 -32 54 0
-53 -55 0
-54 -55 0
46 -55 0
53 54 -46 55 0
-20 55 0
